69 98 88 6 8 46 3 1 4 100 70 
63 85 76 51 84 56 91 80 
92 62 33 28 27 29 30 31 71 94 81 90 
5 45 2 7 79 73 78 53 55 
64 95 67 50 34 32 26 89 48 24 
65 83 59 75 23 21 18 19 49 22 20 66 
14 47 16 15 12 11 9 10 13 17 60 
72 36 39 42 44 43 54 96 93 
82 52 99 57 86 87 97 74 58 77 25 
61 41 38 40 35 37 68 
